# Objective value = 3.0559943459077994e+02
x[0] 0
x[1] 0
x[2] 0
x[3] -2.3669740887765821e-08
x[4] 0
x[5] 1
x[6] 0
x[7] 0
x[8] 1
x[9] 0
x[10] 1
x[11] 0
x[12] 9.9999993787186692e-01
x[13] 1.0000000269152254e+00
x[14] 1
x[15] 3.2166839742955717e-08
x[16] 0
x[17] 0
x[18] 1
x[19] 1
x[20] 0
x[21] 1
x[22] 1
x[23] 0
x[24] 1
x[25] 1
x[26] 0
x[27] 1
x[28] 1.0000000706645427e+00
x[29] 1.0000001378380923e+00
x[30] 0
x[31] 1
x[32] 1
x[33] 1
x[34] 0
x[35] 1
x[36] 0
x[37] 0
x[38] 1
x[39] 0
x[40] 0
x[41] 7.2010110063603409e-08
x[42] 1
x[43] 0
x[44] 1.0000002180077490e+00
x[45] 1
x[46] 0
x[47] 0
x[48] 0
x[49] 0
x[50] 1
x[51] 0
x[52] 0
x[53] 0
x[54] 1
x[55] 1
x[56] 1
x[57] 1
x[58] 1.6679808467487794e-07
x[59] 1
x[60] 1
x[61] 1
x[62] 0
x[63] 1
x[64] 1
x[65] 1
x[66] 0
x[67] 1
x[68] 0
x[69] 1
x[70] 1
x[71] 1
x[72] 1
x[73] 1
x[74] 6.20657664118216e-08
x[75] 0
x[76] 0
x[77] 1
x[78] 1
x[79] 1
x[80] 0
x[81] 1
x[82] 0
x[83] 1
x[84] 0
x[85] 0
x[86] 1
x[87] 0
x[88] 0
x[89] 0
x[90] 1
x[91] 0
x[92] 1
x[93] 1
x[94] 1
x[95] 1
x[96] 1
x[97] 0
x[98] 1
x[99] 1
x[100] 1
x[101] 9.9999993259619857e-01
x[102] 7.0672116082332962e-08
x[103] 0
x[104] 1
x[105] 0
x[106] 1
x[107] 1
x[108] 1
x[109] 1
x[110] 7.0130149165929285e-08
x[111] 0
x[112] 0
x[113] 1
x[114] 1
x[115] 0
x[116] 1
x[117] 0
x[118] 1
x[119] 0
x[120] -5.3052851223256425e-08
x[121] 0
x[122] 1
x[123] 1
x[124] -1.1808526924417380e-07
x[125] 0
x[126] 0
x[127] 1
x[128] 1
x[129] 1
x[130] 0
x[131] 0
x[132] 1
x[133] 0
x[134] 0
x[135] 1
x[136] 1
x[137] 1
x[138] 0
x[139] 7.0444554464976318e-08
x[140] 1
x[141] 0
x[142] 1
x[143] 6.1915679144908911e-08
x[144] 0
x[145] 1
x[146] 0
x[147] 1
x[148] 0
x[149] 1
x[150] 1
x[151] 0
x[152] -2.1813403416892641e-07
x[153] 1
x[154] 1
x[155] 1
x[156] 1
x[157] 0
x[158] 1
x[159] 3.3018988668888110e-08
x[160] 0
x[161] 1
x[162] 0
x[163] 0
x[164] 1.0000000250156165e+00
x[165] 0
x[166] 1
x[167] 1
x[168] 0
x[169] 0
x[170] 1
x[171] -2.1480070075559639e-07
x[172] 0
x[173] 1
x[174] 0
x[175] 1
x[176] 1
x[177] 1
x[178] 0
x[179] 0
x[180] 0
x[181] 1
x[182] 0
x[183] 0
x[184] 1
x[185] 0
x[186] 1
x[187] 0
x[188] -7.8127133873451271e-08
x[189] 0
x[190] 1
x[191] 1
x[192] 0
x[193] 0
x[194] 0
x[195] 0
x[196] 0
x[197] 0
x[198] 0
x[199] 0
x[200] 0
x[201] 1
x[202] 0
x[203] 1
x[204] 0
x[205] 0
x[206] 1
x[207] 1
x[208] 1
x[209] 1
x[210] 0
x[211] 1
x[212] 0
x[213] 9.9999993259619835e-01
x[214] 1
x[215] 1
x[216] 1
x[217] 0
x[218] 1
x[219] 1
x[220] 1
x[221] 0
x[222] 0
x[223] 9.9999990275166717e-01
x[224] 0
x[225] 1
x[226] 1
x[227] 1
x[228] 1
x[229] 1.0000000269183666e+00
x[230] 1
x[231] 0
x[232] 0
x[233] 1
x[234] 1
x[235] 0
x[236] 0
x[237] 1
x[238] 0
x[239] 0
x[240] 0
x[241] 1
x[242] 1
x[243] 1
x[244] 1
x[245] 0
x[246] 0
x[247] -2.1480070083559307e-07
x[248] 1
x[249] 1
x[250] 0
x[251] 1.0000000471251025e+00
x[252] 1
x[253] 0
x[254] 0
x[255] 0
x[256] 0
x[257] 0
x[258] 0
x[259] 0
x[260] 1
x[261] 0
x[262] 0
x[263] 0
x[264] 6.40361174814452e-08
x[265] -6.9095308140674891e-08
x[266] 0
x[267] 0
x[268] 0
x[269] 0
x[270] 1
x[271] 1
x[272] 0
x[273] 1
x[274] 0
x[275] 0
x[276] 0
x[277] 1
x[278] -5.0148566307755520e-08
x[279] 1
x[280] 1
x[281] 0
x[282] 1
x[283] 6.39315718196798e-08
x[284] 0
x[285] 1
x[286] 1
x[287] 0
x[288] 0
x[289] 1
x[290] 0
x[291] 1
x[292] 0
x[293] 1
x[294] 1
x[295] 0.99999993921071
x[296] 0
x[297] 1
x[298] 0
x[299] 6.4026228594964677e-08
x[300] 0
x[301] 1
x[302] 1
x[303] 0
x[304] 0
x[305] 1
x[306] 0
x[307] 1.6784367580822633e-07
x[308] 0
x[309] 1
x[310] 1
x[311] 1
x[312] 1
x[313] 1
x[314] 0
x[315] 1
x[316] 0
x[317] 1
x[318] 0
x[319] 1
x[320] 0
x[321] 1
x[322] 1
x[323] 0
x[324] 0
x[325] 1
x[326] 0
x[327] 0
x[328] 0
x[329] 1
x[330] 1
x[331] 1
x[332] 1
x[333] 1
x[334] 0
x[335] 1.0000000970265155e+00
x[336] 0
x[337] 0
x[338] 1
x[339] 1
x[340] 1
x[341] 0
x[342] 1
x[343] 0
x[344] 0
x[345] 1
x[346] 0
x[347] 0
x[348] 1
x[349] 0
x[350] 1
x[351] 0
x[352] 0
x[353] 0
x[354] 1
x[355] 0
x[356] 9.9999994120520030e-01
x[357] 1
x[358] 0
x[359] 1.0000000776201874e+00
x[360] 0
x[361] 0
x[362] 0
x[363] 0
x[364] 1
x[365] 0
x[366] -1.0610570228395260e-07
x[367] 0
x[368] 1
x[369] -2.5074283094284056e-08
x[370] 1
x[371] 1
x[372] 0
x[373] 0
x[374] 9.9999993918456631e-01
x[375] 0
x[376] 0
x[377] 0
x[378] 0
x[379] 1
x[380] 1
x[381] 1
x[382] 1
x[383] 0
x[384] 1
x[385] 1
x[386] 1
x[387] 0
x[388] 1
x[389] 0
x[390] 0
x[391] 0
x[392] 1
x[393] 6.4017055482652050e-08
x[394] 0
x[395] 0
x[396] 1
x[397] 0
x[398] 1
x[399] 9.9999993587737657e-01
x[400] 0
x[401] 0
x[402] 9.9999993259619835e-01
x[403] 0
x[404] 1
x[405] 1
x[406] 0
x[407] 1
x[408] -2.5074283094284056e-08
x[409] 0
x[410] 1
x[411] 0
x[412] 1
x[413] 0
x[414] 1
x[415] 0
x[416] 1
x[417] -3.51201997576462e-08
x[418] 1
x[419] 1
x[420] 1
x[421] -4.3791769141278063e-08
x[422] 0
x[423] 0
x[424] 1
x[425] 1
x[426] 0
x[427] 0
x[428] 0
x[429] 9.9999984645599649e-01
x[430] 0
x[431] 0
x[432] 1
x[433] -5.0148566188568111e-08
x[434] 1
x[435] 1
x[436] 0
x[437] 1
x[438] 1.0000000496078982e+00
x[439] 1
x[440] 0
x[441] 1
x[442] 1
x[443] 0
x[444] 1
x[445] 1
x[446] 0
x[447] -7.0737134816312164e-08
x[448] 1
x[449] 1
x[450] 1.0000000350426645e+00
x[451] 1
x[452] 1
x[453] 0
x[454] 0
x[455] 0
x[456] 0
x[457] 0
x[458] 1
x[459] 1
x[460] 1
x[461] -7.0737134816312164e-08
x[462] 1.0000000350446621e+00
x[463] -9.72483326947751e-08
x[464] 0
x[465] 1
x[466] 1
x[467] 0
x[468] 0
x[469] 9.9999983201453235e-01
x[470] 0
x[471] 0
x[472] 0
x[473] 1
x[474] 1
x[475] 1
x[476] 1
x[477] 1
x[478] 0
x[479] 0
x[480] 0
x[481] 0
x[482] 1
x[483] 0
x[484] 9.9999993921071006e-01
x[485] 0
x[486] 0
x[487] 0
x[488] 1
x[489] 0
x[490] 1
x[491] 1
x[492] 0
x[493] 1
x[494] 1
x[495] 1
x[496] 1
x[497] 0
x[498] 1
x[499] 0
x[500] 1
x[501] 0
x[502] 1
x[503] 1
x[504] 0
x[505] -2.18134034144057e-07
x[506] -7.0737134816312164e-08
x[507] 0
x[508] -2.5074283094284056e-08
x[509] 0
x[510] 9.7042773571596866e-08
x[511] 0
x[512] 1
x[513] 1
x[514] 1
x[515] 9.7160510197411909e-08
x[516] 0
x[517] 0
x[518] 0
x[519] 1
x[520] 9.4065601013885913e-08
x[521] 1
x[522] 0
x[523] 0
x[524] 1.0000000704461685e+00
x[525] 0
x[526] 0
x[527] 0
x[528] 0
x[529] 7.0652192871450814e-08
x[530] 1
x[531] 0
x[532] 0
x[533] 1.0000002180637688e+00
x[534] 1
x[535] 0
x[536] -5.0148566188568111e-08
x[537] 0
x[538] 1
x[539] 1
x[540] 1
x[541] 1
x[542] 1
x[543] 0
x[544] 1
x[545] 0
x[546] 0
x[547] 0
x[548] 0
x[549] 0
x[550] 0
x[551] 1
x[552] 0
x[553] 0
x[554] 1
x[555] 1
x[556] 1
x[557] 1
x[558] 1
x[559] -4.7424254570899793e-08
x[560] 1
x[561] 1
x[562] 1
x[563] 9.9999996687428949e-01
x[564] 1
x[565] 1
x[566] 0
x[567] 1
x[568] 0
x[569] 1
x[570] 0
x[571] 6.3955123100242460e-08
x[572] 0
x[573] 1
x[574] 0
x[575] 1
x[576] 0
x[577] 1
x[578] 1.0000000971367529e+00
x[579] 0
x[580] 1
x[581] 0
x[582] 0
x[583] 1
x[584] 1
x[585] 1
x[586] 0
x[587] -2.5074283094284056e-08
x[588] 1
x[589] 1
x[590] 0
x[591] 1
x[592] 1
x[593] 0
x[594] 0
x[595] -2.7003074221099155e-08
x[596] -3.5120199781852763e-08
x[597] 1
x[598] 0
x[599] 0
x[600] 0
x[601] 0
x[602] 0
x[603] 0
x[604] 1.0000002180728125e+00
x[605] 0
x[606] 1
x[607] 1
x[608] 1
x[609] 1
x[610] 1
x[611] 0
x[612] 0
x[613] 0
x[614] 1
x[615] 1
x[616] 0
x[617] 1
x[618] -5.3052851223256425e-08
x[619] 1.0000000267678
x[620] 1.0000000269368845e+00
x[621] 1
x[622] 0
x[623] 0
x[624] 1
x[625] 1
x[626] 0
x[627] 1
x[628] 1
x[629] 1
x[630] 1
x[631] 1
x[632] 1
x[633] 1
x[634] 0
x[635] 0
x[636] 0
x[637] 0
x[638] 0
x[639] 0
x[640] 0
x[641] -2.5074283094284056e-08
x[642] 0
x[643] 0
x[644] 1
x[645] 0
x[646] 0
x[647] 0
x[648] 1
x[649] 7.0660642621516075e-08
x[650] 0
x[651] 1
x[652] 0
x[653] 0
x[654] 0
x[655] 1
x[656] 0
x[657] 0
x[658] 1.0000002172628188e+00
x[659] 0
x[660] 1.0000000500890818e+00
x[661] 1
x[662] 0
x[663] 0
x[664] 1
x[665] 1
x[666] 1
x[667] 1
x[668] 0
x[669] 0
x[670] 0
x[671] 1
x[672] 1.00000005588167
x[673] 1
x[674] 0
x[675] 0
x[676] 1
x[677] 0
x[678] 0
x[679] 0
x[680] 1
x[681] 1.0000000248093308e+00
x[682] 0
x[683] 1
x[684] 6.4052928777031168e-08
x[685] 1
x[686] -6.4122623384661292e-08
x[687] 1
x[688] 9.9999983534786563e-01
x[689] 1
x[690] 1
x[691] 0
x[692] 1
x[693] 1.0000000249624119e+00
x[694] 0
x[695] 0
x[696] 1
x[697] 1
x[698] 1.0000000706646295e+00
x[699] 1
x[700] 0
x[701] 1
x[702] 0
x[703] 1
x[704] 0
x[705] 1
x[706] 0
x[707] 0
x[708] 0
x[709] 0
x[710] 9.9999990275166706e-01
x[711] 1
x[712] 0
x[713] 1
x[714] 0
x[715] 0
x[716] 0
x[717] 0
x[718] 0
x[719] 1.0000000162310927e+00
x[720] 1
x[721] 1
x[722] 0
x[723] 0
x[724] 1
x[725] 1
x[726] 1.0000000500199542e+00
x[727] 0
x[728] 0
x[729] 0
x[730] 1
x[731] 1
x[732] 0
x[733] 1
x[734] 0
x[735] 1
x[736] 1
x[737] 1
x[738] 0
x[739] 0
x[740] 9.7144224525530255e-08
x[741] 0
x[742] -4.8052851194602533e-08
x[743] 1
x[744] 0
x[745] 1
x[746] 1
x[747] 1
x[748] 0
x[749] 1
x[750] 0
x[751] 0
x[752] 0
x[753] 0
x[754] 0
x[755] 1
x[756] 0
x[757] 9.9999996793868817e-01
x[758] 0
x[759] 1
x[760] 1
x[761] 0
x[762] 0
x[763] 1
x[764] -4.9399416739087146e-08
x[765] 1.0000000529699284e+00
x[766] 1
x[767] -2.1313403414405698e-07
x[768] 1
x[769] 0
x[770] 0
x[771] 1.0000000250011765e+00
x[772] 0
x[773] 0
x[774] 0
x[775] 1.1154324231909818e-07
x[776] -2.7003074221099155e-08
x[777] 0
x[778] 1
x[779] 0
x[780] 1
x[781] -1.8428986522326267e-07
x[782] 1
x[783] 0
x[784] 1
x[785] 1
x[786] 0
x[787] 0
x[788] 0
x[789] -4.6815233077279379e-08
x[790] 0
x[791] 0
x[792] 1
x[793] 0
x[794] 0
x[795] 1
x[796] 1
x[797] 1
x[798] 0
x[799] 0
x[800] 1
x[801] 1
x[802] 1
x[803] 0
x[804] 0
x[805] 1
x[806] 0
x[807] 1
x[808] 1
x[809] 1
x[810] 1
x[811] 0
x[812] 1.0000000500713575e+00
x[813] 0
x[814] 1
x[815] 0
x[816] 1
x[817] 1
x[818] 0
x[819] 0
x[820] 1
x[821] 0
x[822] 1.0000000244740952e+00
x[823] 0
x[824] 1
x[825] 0
x[826] 0
x[827] 0
x[828] 0
x[829] 1
x[830] 0
x[831] 0
x[832] 1
x[833] 1
x[834] 0
x[835] -2.5074282650194846e-08
x[836] -7.0737134816312164e-08
x[837] 1
x[838] 0
x[839] 1
x[840] 1
x[841] 1
x[842] 0
x[843] 0
x[844] 1
x[845] 0.999999970207623
x[846] 0
x[847] 1
x[848] 0
x[849] 1
x[850] 9.9999993929721587e-01
x[851] 0
x[852] 1
x[853] 1.0000000529276365e+00
x[854] 0
x[855] 1
x[856] 1
x[857] 1
x[858] 1
x[859] 0
x[860] 1
x[861] 1
x[862] 1
x[863] 0
x[864] 6.4026203840429719e-08
x[865] 1
x[866] 1
x[867] 0
x[868] 3.0554669734229105e-08
x[869] 0
x[870] 0
x[871] 0
x[872] 0
x[873] 1
x[874] 0
x[875] 0
x[876] 0
x[877] 1
x[878] 1.6792433540456987e-07
x[879] 0
x[880] 1.0000000706366785e+00
x[881] 1
x[882] 1
x[883] 1
x[884] 1
x[885] 1
x[886] 0
x[887] 1
x[888] 1
x[889] 0
x[890] 0
x[891] 0
x[892] 0
x[893] 0
x[894] 0
x[895] 1.0000000500474580e+00
x[896] 1
x[897] 1
x[898] 1
x[899] 1
x[900] 0
x[901] 0
x[902] 0
x[903] 0
x[904] 1
x[905] 0
x[906] 0
x[907] 1
x[908] 0
x[909] 0
x[910] 1
x[911] 1
x[912] 0
x[913] 1
x[914] 0
x[915] 1.0000000249758731e+00
x[916] 1
x[917] 1
x[918] -4.6274564963020672e-08
x[919] 1
x[920] 1
x[921] 1
x[922] 1
x[923] 0
x[924] 0
x[925] 0
x[926] 0
x[927] 1
x[928] 1
x[929] 1
x[930] 1
x[931] 1
x[932] 6.2666052961562525e-08
x[933] 0
x[934] 0
x[935] 0
x[936] 0
x[937] 0
x[938] 1
x[939] 0
x[940] 0
x[941] 0
x[942] 1
x[943] 1
x[944] 9.9999993266121734e-01
x[945] 0
x[946] 1.0000000469534673e+00
x[947] 0
x[948] 0
x[949] 1
x[950] 0
x[951] 1
x[952] 1
x[953] 0
x[954] 1
x[955] 0
x[956] 0
x[957] 0
x[958] 1
x[959] 0
x[960] 0
x[961] 6.3666412009915826e-08
x[962] 1
x[963] 1
x[964] 1
x[965] 0
x[966] 1
x[967] 1
x[968] 0
x[969] 1
x[970] -3.51201998594064e-08
x[971] 1
x[972] 0
x[973] 0
x[974] 9.9999993587737668e-01
x[975] 0
x[976] 0
x[977] 1
x[978] 1
x[979] 0
x[980] 0
x[981] 0
x[982] 0
x[983] 1
x[984] 1
x[985] 0
x[986] 1
x[987] 9.9999993921071006e-01
x[988] 0
x[989] 0
x[990] 1
x[991] 0
x[992] 0
x[993] 1
x[994] 1
x[995] 0
x[996] 1
x[997] 9.9999997226926685e-01
x[998] 1
x[999] 1
